% demand
num_movements = 31;
loading_factor = [1950, 1250, 800, 800, 1700, 1100, 900, 1150, 1700, 950, 1850, 950, 850, 1400, 1250, 1150, 1100, 1250, 950, 1650, 1700, 1900, 800, 800, 1600, 1150, 850, 800, 950, 1350, 800];
pickup_time = [0, 0, 0, 0, 0, 1, 1, 2, 3, 3, 3, 3, 4, 4, 4, 5, 5, 5, 6, 6, 6, 6, 6, 7, 7, 9, 9, 12, 12, 12, 12];
delivery_time = [2, 3, 3, 2, 1, 3, 3, 4, 4, 4, 5, 4, 6, 6, 6, 6, 6, 6, 7, 7, 7, 11, 13, 8, 12, 13, 11, 13, 13, 13, 13];

% transporter definition
total_capacity = 7000;
num_decks = 3;
capacity = [3000, 1000, 3000];

% ways out of decks
num_ways_out = 1;
paths_out = array3d(decks, ways_out, decks, [
% ways out of deck d1
2, 3, 0, 

% ways out of deck d2
3, 0, 0, 

% ways out of deck d3
0, 0, 0,	

]);

